images = 30;
universe = 254;
sets = [{1, 3, 4, 5, 6, 7, 8, 9, 10, 11, 12, 13, 14, 15, 16, 17, 18, 19, 20, 21, 22, 23, 24, 25, 26, 27, 28, 29, 30, 32, 34, 36, 38, 40, 42, 44, 46, 48, 50, 52, 54, 56, 58, 60, 62, 64, 66, 104, 105, 106, 107, 108, 109, 110, 111, 112, 113, 114, 115, 116, 117, 118, 119, 120, 121, 122, 123, 124, 125, 126, 127, 154, 155, 156, 157, 158, 159, 160, 161, 162, 163, 164, 165, 166, 167, 168, 169, 170, 171, 172, 173, 174, 175, 176, 177, 183, 184, 191, 192, 193, 194, 195, 206, 207, 208, 209, 210, 211, 212, 213, 214, 230, 231, 232, 233, 234, 235, 236, 237, 238, 244, 245, 248, 249, 250, 254}, {68, 69, 70, 71, 72, 73, 74, 75, 76, 77, 78, 79, 80, 81, 83, 85, 87, 89, 138, 139, 140, 141, 142, 143, 145, 146, 147, 148, 149, 150, 151, 152, 204, 205, 222}, {21, 22, 23, 24, 25, 26, 27, 28, 29, 30, 31, 32, 33, 34, 35, 36, 37, 38, 39, 40, 41, 92, 94, 96, 98, 100, 102, 104, 106, 108, 110, 112, 114, 116, 118, 120, 124, 126, 128, 129, 130, 131, 132, 133, 134, 163, 164, 165, 166, 167, 168, 169, 170, 171, 172, 173, 174, 175, 176, 177, 192, 193, 194, 195, 196, 197, 198, 199, 210, 211, 212, 213, 214, 215, 216, 223, 224, 225, 248, 254}, {6, 7, 8}, {1, 2, 64, 66, 67, 80, 81, 82, 83, 84, 136, 138, 140, 142, 144}, {75, 76, 77, 78, 79, 80, 140, 141, 142, 143, 145, 147, 149, 204, 205}, {26, 27, 28, 29, 30, 31, 32, 33, 34, 35, 36, 37, 38, 39, 40, 41, 42, 43, 44, 45, 46, 47, 48, 49, 50, 51, 52, 53, 54, 55, 56, 57, 68, 69, 70, 71, 89, 90, 91, 92, 93, 94, 95, 96, 97, 98, 99, 100, 101, 102, 103, 104, 105, 106, 107, 108, 109, 128, 129, 130, 131, 132, 133, 134, 135, 150, 151, 152, 153, 155, 157, 159, 161, 164, 166, 168, 170, 172, 175, 177, 178, 179, 180, 181, 182, 185, 186, 187, 188, 189, 190, 191, 196, 197, 198, 199, 200, 201, 202, 203, 209, 210, 211, 212, 213, 214, 215, 216, 217, 218, 219, 220, 221, 222, 223, 224, 225, 226, 227, 228, 229, 239, 240, 241, 242, 243, 246, 247, 251, 252, 253}, {1, 2, 3, 4, 5, 6, 7, 8, 9, 62, 63, 64, 65, 66, 67, 183}, {11, 12}, {22, 23, 24, 25, 26, 27, 28, 29, 30, 31, 32, 33, 34, 35, 36, 37, 38, 39, 40, 41, 42, 43, 44, 45, 46, 47, 94, 95, 96, 97, 98, 99, 100, 101, 102, 103, 104, 105, 106, 107, 128, 129, 130, 131, 163, 164, 165, 166, 167, 168, 169, 170, 171, 172, 173, 174, 175, 176, 177, 185, 187, 189, 191, 192, 194, 195, 196, 198, 200, 202, 210, 211, 212, 213, 214, 215, 216, 217, 218, 223, 224, 225, 239, 240, 241, 242, 243, 248, 254}, {1, 2, 3, 4, 30, 31, 32, 33, 34, 35, 36, 37, 38, 39, 40, 41, 42, 43, 44, 45, 46, 47, 48, 49, 50, 51, 52, 53, 54, 55, 56, 57, 58, 59, 60, 61, 62, 63, 64, 65, 66, 67, 68, 69, 78, 79, 80, 81, 82, 83, 84, 85, 86, 87, 88, 89, 90, 91, 92, 93, 94, 95, 96, 97, 98, 99, 100, 101, 102, 103, 104, 105, 128, 129, 130, 131, 132, 133, 134, 135, 136, 137, 138, 139, 140, 141, 142, 143, 144, 145, 146, 152, 153, 154, 155, 156, 178, 179, 180, 181, 182, 185, 186, 187, 188, 189, 190, 196, 197, 198, 199, 200, 201, 202, 203, 204, 207, 209, 215, 216, 217, 218, 219, 220, 221, 222, 223, 224, 225, 226, 227, 228, 229, 239, 240, 241, 242, 243, 246, 247, 251, 252, 253}, {1, 2, 3, 4, 5, 6, 7, 8, 9, 10, 11, 12, 13, 14, 15, 16, 17, 18, 19, 20, 21, 22, 23, 24, 25, 26, 27, 28, 29, 30, 31, 32, 33, 34, 35, 36, 37, 38, 39, 40, 41, 42, 43, 44, 45, 46, 47, 48, 49, 50, 51, 52, 53, 54, 55, 56, 57, 58, 59, 60, 61, 62, 63, 64, 65, 66, 67, 103, 104, 105, 106, 107, 108, 109, 110, 111, 112, 113, 114, 115, 116, 117, 118, 119, 120, 121, 122, 123, 124, 125, 126, 127, 136, 137, 144, 153, 154, 155, 156, 157, 158, 159, 160, 161, 162, 163, 164, 165, 166, 167, 168, 169, 170, 171, 172, 173, 174, 175, 176, 177, 183, 184, 191, 192, 193, 194, 195, 206, 207, 208, 209, 210, 211, 212, 213, 214, 230, 231, 232, 233, 234, 235, 236, 237, 238, 244, 245, 248, 249, 250, 254}, {73, 74, 75, 138, 139, 140, 141, 142, 145, 146, 147, 148, 149, 150, 151, 152, 222}, {1, 2, 3, 64, 65, 66, 67, 79, 80, 81, 82, 83, 84, 85, 86, 136, 137, 138, 139, 140, 141, 142, 143, 144}, {22, 23, 24, 25, 26, 27, 28, 29, 30, 31, 32, 33, 34, 35, 128, 129, 130, 131, 132, 172, 173, 174, 175, 176, 177, 196, 197, 198, 199, 213, 214, 215, 216, 223, 224, 225}, {25, 26, 27, 28, 29, 30, 31, 32, 33, 34, 35, 36, 37, 100, 101, 128, 170, 171, 172, 173, 174, 212, 213, 214, 215, 216}, {14, 15, 16, 17, 18, 19, 20, 21, 22, 23, 24, 25, 26, 27, 28, 29, 30, 31, 32, 33, 34, 35, 36, 37, 38, 39, 40, 41, 42, 43, 44, 45, 46, 47, 48, 49, 50, 51, 92, 93, 94, 95, 96, 97, 98, 99, 100, 101, 102, 103, 104, 105, 106, 107, 108, 109, 110, 111, 112, 113, 114, 115, 116, 117, 123, 124, 125, 126, 127, 128, 129, 130, 131, 132, 133, 134, 135, 161, 162, 163, 164, 165, 166, 167, 168, 169, 170, 171, 172, 173, 174, 175, 176, 177, 178, 179, 180, 181, 182, 185, 186, 187, 188, 189, 190, 191, 192, 193, 194, 195, 196, 197, 198, 199, 200, 201, 202, 203, 210, 211, 212, 213, 214, 215, 216, 217, 218, 223, 224, 225, 226, 227, 230, 231, 233, 234, 235, 238, 239, 240, 241, 242, 243, 244, 245, 246, 247, 248, 249, 250, 251, 252, 254}, {29, 30, 31, 32, 33, 34, 35, 36, 37, 38, 39, 40, 41, 42, 43, 44, 45, 46, 47, 48, 49, 50, 51, 52, 53, 54, 55, 56, 57, 58, 59, 60, 61, 62, 63, 64, 65, 66, 67, 68, 69, 70, 83, 84, 85, 86, 87, 88, 89, 90, 91, 92, 93, 94, 95, 96, 97, 98, 99, 100, 101, 102, 103, 104, 105, 106, 107, 108, 109, 110, 111, 128, 129, 130, 131, 132, 133, 134, 135, 136, 137, 138, 139, 140, 141, 142, 143, 145, 146, 147, 148, 151, 152, 153, 154, 155, 156, 157, 158, 159, 160, 161, 162, 163, 178, 179, 180, 181, 182, 183, 184, 185, 186, 187, 188, 189, 190, 191, 196, 197, 198, 199, 200, 201, 202, 203, 204, 205, 206, 207, 208, 209, 210, 211, 212, 213, 214, 215, 216, 217, 218, 219, 220, 221, 222, 223, 224, 225, 226, 227, 228, 229, 230, 239, 240, 241, 242, 243, 246, 247, 251, 252, 253}, {20, 21, 22, 23, 24, 25, 26, 27, 28, 29, 30, 31, 32, 33, 34, 35, 36, 37, 38, 39, 40, 41, 42, 43, 92, 93, 94, 95, 96, 97, 98, 99, 100, 101, 102, 103, 104, 105, 106, 107, 108, 109, 110, 111, 112, 113, 114, 115, 116, 117, 118, 119, 122, 123, 124, 125, 126, 127, 128, 129, 130, 131, 132, 133, 134, 135, 163, 164, 165, 166, 167, 168, 169, 170, 171, 172, 173, 174, 175, 176, 177, 192, 193, 194, 195, 196, 197, 198, 199, 200, 201, 210, 211, 212, 213, 214, 215, 216, 217, 223, 224, 225, 239, 241, 248, 254}, {18, 19, 20, 21, 22, 23, 24, 25, 26, 27, 28, 29, 30, 31, 32, 33, 34, 35, 36, 37, 38, 39, 40, 41, 42, 43, 44, 45, 92, 93, 94, 95, 96, 97, 98, 99, 100, 101, 102, 103, 128, 129, 130, 131, 132, 133, 134, 135, 166, 167, 168, 169, 170, 171, 172, 173, 174, 175, 176, 177, 178, 179, 196, 197, 198, 199, 200, 201, 202, 203, 210, 211, 212, 213, 214, 215, 216, 217, 218, 223, 224, 225, 239, 240, 241, 242, 243, 246, 247, 250, 251}, {8}, {16, 17, 18, 19, 20, 21, 22, 23, 24, 25, 26, 27, 28, 29, 30, 31, 32, 33, 34, 35, 36, 37, 38, 39, 40, 41, 42, 43, 44, 45, 46, 47, 48, 49, 92, 93, 94, 95, 96, 97, 98, 99, 100, 101, 102, 103, 104, 105, 106, 107, 108, 109, 110, 111, 112, 113, 114, 115, 116, 117, 118, 119, 120, 121, 122, 123, 124, 125, 126, 127, 128, 129, 130, 131, 132, 133, 134, 135, 155, 156, 157, 158, 159, 160, 161, 162, 163, 164, 165, 166, 167, 168, 169, 170, 171, 172, 173, 174, 175, 176, 177, 178, 179, 180, 189, 190, 191, 192, 193, 194, 195, 196, 197, 198, 199, 207, 208, 209, 210, 211, 212, 213, 214, 215, 216, 217, 218, 223, 224, 225, 230, 231, 232, 233, 234, 235, 236, 238, 243, 244, 245, 246, 248, 249, 250, 251, 252, 254}, {28, 29, 30, 31, 68, 91, 128, 129, 130, 131, 132, 133, 134, 135, 178, 179, 180, 181, 182, 196, 197, 222}, {19, 20, 21, 22, 23, 24, 25, 26, 27, 28, 29, 30, 31, 32, 33, 34, 35, 36, 37, 38, 39, 40, 41, 42, 43, 44, 45, 46, 47, 48, 49, 50, 51, 52, 53, 54, 55, 56, 57, 58, 59, 96, 97, 98, 99, 100, 101, 102, 103, 104, 105, 106, 107, 108, 109, 110, 111, 112, 113, 114, 115, 116, 117, 118, 119, 120, 121, 122, 123, 124, 125, 126, 127, 128, 129, 130, 131, 132, 133, 154, 155, 156, 157, 158, 159, 160, 161, 162, 163, 164, 165, 166, 167, 168, 169, 170, 171, 172, 173, 174, 175, 176, 177, 187, 188, 189, 190, 191, 192, 193, 194, 195, 206, 207, 208, 209, 210, 211, 212, 213, 214, 215, 216, 217, 218, 219, 220, 221, 223, 224, 225, 230, 231, 232, 233, 234, 237, 238, 239, 240, 241, 242, 243, 244, 245, 248, 254}, {17, 18, 19, 20, 21, 22, 23, 24, 25, 26, 27, 28, 29, 30, 31, 32, 33, 34, 35, 36, 37, 38, 39, 40, 41, 42, 43, 44, 45, 46, 47, 48, 49, 50, 51, 52, 53, 54, 55, 92, 93, 94, 95, 96, 97, 98, 99, 100, 101, 102, 103, 104, 105, 106, 107, 108, 109, 110, 111, 112, 113, 114, 115, 126, 127, 128, 129, 130, 131, 132, 133, 134, 135, 154, 155, 156, 157, 158, 159, 160, 161, 162, 163, 164, 165, 166, 167, 168, 169, 170, 171, 172, 173, 174, 175, 176, 177, 178, 185, 186, 187, 188, 189, 190, 191, 195, 196, 197, 198, 199, 200, 201, 202, 203, 209, 210, 211, 212, 213, 214, 215, 216, 217, 218, 219, 220, 223, 224, 225, 229, 230, 231, 232, 238, 239, 240, 241, 242, 243, 245, 246, 248, 249, 253}, {7, 8, 9, 10, 11}, {24, 25, 26, 27, 28, 29, 30, 31, 32, 33, 34, 35, 36, 37, 38, 39, 98, 99, 100, 101, 102, 103, 128, 129, 130, 168, 169, 170, 171, 172, 173, 174, 175, 176, 211, 212, 213, 214, 215, 216, 224, 225, 241, 242, 243, 248, 254}, {27, 28, 29, 30, 31, 32, 33, 128, 129, 173, 174, 214, 215, 225}, {14, 15, 16, 17, 18, 19, 20, 21, 22, 23, 24, 25, 26, 27, 28, 29, 30, 31, 32, 33, 34, 35, 36, 37, 38, 39, 40, 41, 42, 43, 44, 45, 46, 47, 48, 49, 50, 51, 52, 53, 92, 93, 94, 95, 96, 97, 98, 99, 100, 101, 102, 103, 104, 105, 106, 107, 108, 109, 110, 111, 112, 113, 124, 125, 126, 127, 128, 129, 130, 131, 132, 133, 134, 135, 159, 160, 161, 162, 163, 164, 165, 166, 167, 168, 169, 170, 171, 172, 173, 174, 175, 176, 177, 178, 179, 180, 181, 185, 186, 187, 188, 189, 190, 191, 192, 193, 195, 196, 197, 198, 199, 200, 201, 202, 203, 209, 210, 211, 212, 213, 214, 215, 216, 217, 218, 219, 223, 224, 225, 227, 228, 229, 238, 239, 240, 241, 242, 243, 244, 245, 246, 247, 248, 249, 250, 251, 252, 254}, {74, 75, 76}];
costs = [2022.094886804725, 1559.2292152520956, 414.6383914103843, 502.0276818176204, 624.984929060433, 419.00643550982426, 825.9047272811956, 381.0726181942133, 1038.987440709054, 406.6992004436802, 1569.3915710221647, 1432.8359297494221, 404.2686772966448, 628.7434429437103, 395.3718848946211, 387.6545710879754, 504.8305125666966, 764.5212900618025, 420.2077971894289, 444.4157095688108, 756.3117078668613, 492.56200665877685, 917.523667421844, 313.58960970538493, 466.8621259864589, 1267.8832339786484, 396.9788877517827, 382.799372332569, 507.70271154947153, 462.68319685648856];
